Version identifier: 22.1.1.0 | 2022-11-28 | 9160aff4d
CPXPARAM_Threads                                 8
CPXPARAM_Emphasis_MIP                            5
CPXPARAM_TimeLimit                               3600
CPXPARAM_MIP_Tolerances_MIPGap                   0.029999999999999999
Tried aggregator 2 times.
MIP Presolve eliminated 290 rows and 158 columns.
Aggregator did 74 substitutions.
Reduced MIP has 708 rows, 551 columns, and 2574 nonzeros.
Reduced MIP has 461 binaries, 90 generals, 0 SOSs, and 0 indicators.
Presolve time = 0.00 sec. (2.64 ticks)
Probing fixed 26 vars, tightened 25 bounds.
Probing time = 0.00 sec. (1.70 ticks)
Tried aggregator 1 time.
Detecting symmetries...
MIP Presolve eliminated 41 rows and 27 columns.
Reduced MIP has 667 rows, 524 columns, and 2412 nonzeros.
Reduced MIP has 434 binaries, 90 generals, 0 SOSs, and 0 indicators.
Presolve time = 0.00 sec. (2.38 ticks)
Probing time = 0.00 sec. (1.48 ticks)
Clique table members: 795.
MIP emphasis: heuristic.
MIP search method: dynamic search.
Parallel mode: deterministic, using up to 8 threads.
Root relaxation solution time = 0.02 sec. (5.37 ticks)

        Nodes                                         Cuts/
   Node  Left     Objective  IInf  Best Integer    Best Bound    ItCnt     Gap

      0     0      293.0000    28                    293.0000      332         
*     0+   -1                          532.0000      293.0000            44.92%
      0     0  -1.00000e+75     0      532.0000      293.0000      332   44.92%
*     0+    0                          293.0000      293.0000             0.00%
      0     0        cutoff            293.0000      293.0000      332    0.00%
Elapsed time = 0.08 sec. (36.79 ticks, tree = 0.01 MB, solutions = 2)
Version identifier: 22.1.1.0 | 2022-11-28 | 9160aff4d
CPXPARAM_Threads                                 8
CPXPARAM_Emphasis_MIP                            5
CPXPARAM_TimeLimit                               3600
CPXPARAM_MIP_Tolerances_MIPGap                   0.029999999999999999
Tried aggregator 4 times.
MIP Presolve eliminated 393 rows and 233 columns.
Aggregator did 81 substitutions.
Reduced MIP has 1100 rows, 865 columns, and 4058 nonzeros.
Reduced MIP has 727 binaries, 138 generals, 0 SOSs, and 0 indicators.
Presolve time = 0.01 sec. (6.06 ticks)
Probing fixed 75 vars, tightened 72 bounds.
Probing time = 0.01 sec. (3.80 ticks)
Tried aggregator 2 times.
Detecting symmetries...
MIP Presolve eliminated 105 rows and 81 columns.
Aggregator did 1 substitutions.
Reduced MIP has 994 rows, 783 columns, and 3618 nonzeros.
Reduced MIP has 645 binaries, 138 generals, 0 SOSs, and 0 indicators.
Presolve time = 0.01 sec. (4.75 ticks)
Probing fixed 7 vars, tightened 8 bounds.
Probing time = 0.00 sec. (3.03 ticks)
Clique table members: 2014.
MIP emphasis: heuristic.
MIP search method: dynamic search.
Parallel mode: deterministic, using up to 8 threads.
Root relaxation solution time = 0.03 sec. (11.74 ticks)

        Nodes                                         Cuts/
   Node  Left     Objective  IInf  Best Integer    Best Bound    ItCnt     Gap

*     0+    0                          579.0000        0.0000           100.00%
*     0     0      integral     0      293.0000      293.0000      585    0.00%
Elapsed time = 0.08 sec. (52.65 ticks, tree = 0.00 MB, solutions = 2)
Version identifier: 22.1.1.0 | 2022-11-28 | 9160aff4d
CPXPARAM_Threads                                 8
CPXPARAM_Emphasis_MIP                            5
CPXPARAM_TimeLimit                               3600
CPXPARAM_MIP_Tolerances_MIPGap                   0.029999999999999999
Tried aggregator 2 times.
MIP Presolve eliminated 467 rows and 290 columns.
Aggregator did 85 substitutions.
Reduced MIP has 1399 rows, 1101 columns, and 5186 nonzeros.
Reduced MIP has 926 binaries, 175 generals, 0 SOSs, and 0 indicators.
Presolve time = 0.02 sec. (5.06 ticks)
Probing fixed 123 vars, tightened 119 bounds.
Probing time = 0.01 sec. (6.97 ticks)
Tried aggregator 1 time.
MIP Presolve eliminated 164 rows and 128 columns.
Reduced MIP has 1235 rows, 973 columns, and 4490 nonzeros.
Reduced MIP has 798 binaries, 175 generals, 0 SOSs, and 0 indicators.
Presolve time = 0.00 sec. (3.55 ticks)
Probing time = 0.00 sec. (2.58 ticks)
Tried aggregator 1 time.
Detecting symmetries...
Reduced MIP has 1235 rows, 973 columns, and 4490 nonzeros.
Reduced MIP has 798 binaries, 175 generals, 0 SOSs, and 0 indicators.
Presolve time = 0.00 sec. (2.87 ticks)
Probing time = 0.00 sec. (2.58 ticks)
Clique table members: 3157.
MIP emphasis: heuristic.
MIP search method: dynamic search.
Parallel mode: deterministic, using up to 8 threads.
Root relaxation solution time = 0.03 sec. (12.12 ticks)

        Nodes                                         Cuts/
   Node  Left     Objective  IInf  Best Integer    Best Bound    ItCnt     Gap

*     0     0      integral     0      293.0000      293.0000      599    0.00%
Elapsed time = 0.11 sec. (70.54 ticks, tree = 0.00 MB, solutions = 1)

Root node processing (before b&c):
  Real time             =    0.09 sec. (52.69 ticks)
Parallel b&c, 8 threads:
  Real time             =    0.00 sec. (0.00 ticks)
  Sync time (average)   =    0.00 sec.
  Wait time (average)   =    0.00 sec.
                          ------------
Total (root+branch&cut) =    0.09 sec. (52.69 ticks)
Version identifier: 22.1.1.0 | 2022-11-28 | 9160aff4d
CPXPARAM_Threads                                 8
CPXPARAM_Emphasis_MIP                            5
CPXPARAM_TimeLimit                               3600
CPXPARAM_MIP_Tolerances_MIPGap                   0.029999999999999999
Tried aggregator 2 times.
MIP Presolve eliminated 795 rows and 501 columns.
MIP Presolve modified 3 coefficients.
Aggregator did 123 substitutions.
Reduced MIP has 1669 rows, 1305 columns, and 6221 nonzeros.
Reduced MIP has 1119 binaries, 186 generals, 0 SOSs, and 0 indicators.
Presolve time = 0.01 sec. (7.78 ticks)
Probing fixed 190 vars, tightened 183 bounds.
Probing time = 0.01 sec. (8.17 ticks)
Tried aggregator 1 time.
MIP Presolve eliminated 257 rows and 195 columns.
Reduced MIP has 1412 rows, 1110 columns, and 5157 nonzeros.
Reduced MIP has 924 binaries, 186 generals, 0 SOSs, and 0 indicators.
Presolve time = 0.00 sec. (4.10 ticks)
Probing time = 0.00 sec. (2.60 ticks)
Tried aggregator 1 time.
Detecting symmetries...
Reduced MIP has 1412 rows, 1110 columns, and 5157 nonzeros.
Reduced MIP has 924 binaries, 186 generals, 0 SOSs, and 0 indicators.
Presolve time = 0.00 sec. (3.36 ticks)
Probing time = 0.00 sec. (2.61 ticks)
Clique table members: 3553.
MIP emphasis: heuristic.
MIP search method: dynamic search.
Parallel mode: deterministic, using up to 8 threads.
Root relaxation solution time = 0.04 sec. (18.97 ticks)

        Nodes                                         Cuts/
   Node  Left     Objective  IInf  Best Integer    Best Bound    ItCnt     Gap

      0     0      352.4000    71                    352.4000      763         
*     0+    0                          405.0000      352.4000            12.99%
*     0+    0                          366.0000      352.4000             3.72%
      0     0        cutoff            366.0000      366.0000      824    0.00%
Elapsed time = 0.20 sec. (153.46 ticks, tree = 0.01 MB, solutions = 2)
Version identifier: 22.1.1.0 | 2022-11-28 | 9160aff4d
CPXPARAM_Threads                                 8
CPXPARAM_Emphasis_MIP                            5
CPXPARAM_TimeLimit                               3600
CPXPARAM_MIP_Tolerances_MIPGap                   0.029999999999999999
Tried aggregator 2 times.
MIP Presolve eliminated 890 rows and 574 columns.
MIP Presolve modified 3 coefficients.
Aggregator did 129 substitutions.
Reduced MIP has 1931 rows, 1514 columns, and 7212 nonzeros.
Reduced MIP has 1298 binaries, 216 generals, 0 SOSs, and 0 indicators.
Presolve time = 0.02 sec. (8.98 ticks)
Found incumbent of value 908.000000 after 0.06 sec. (45.39 ticks)
Probing fixed 248 vars, tightened 240 bounds.
Probing time = 0.01 sec. (9.95 ticks)
Tried aggregator 1 time.
MIP Presolve eliminated 324 rows and 254 columns.
Reduced MIP has 1607 rows, 1260 columns, and 5851 nonzeros.
Reduced MIP has 1045 binaries, 215 generals, 0 SOSs, and 0 indicators.
Presolve time = 0.00 sec. (3.05 ticks)
Probing time = 0.00 sec. (2.72 ticks)
Tried aggregator 1 time.
Detecting symmetries...
Reduced MIP has 1607 rows, 1260 columns, and 5851 nonzeros.
Reduced MIP has 1045 binaries, 215 generals, 0 SOSs, and 0 indicators.
Presolve time = 0.00 sec. (3.78 ticks)
Probing time = 0.00 sec. (2.72 ticks)
Clique table members: 4080.
MIP emphasis: heuristic.
MIP search method: dynamic search.
Parallel mode: deterministic, using up to 8 threads.
Root relaxation solution time = 0.03 sec. (21.48 ticks)

        Nodes                                         Cuts/
   Node  Left     Objective  IInf  Best Integer    Best Bound    ItCnt     Gap

*     0+    0                          908.0000        0.0000           100.00%
      0     0      384.4000   115      908.0000      384.4000      809   57.67%
*     0+   -1                          621.0000      384.4000            38.10%
      0     0  -1.00000e+75     0      621.0000      384.4000      809   38.10%
*     0+    0                          437.0000      384.4000            12.04%
*     0+    0                          423.0000      384.4000             9.13%
*     0+    0                          398.0000      384.4000             3.42%
      0     0        cutoff            398.0000                    929    0.00%
Elapsed time = 0.23 sec. (201.06 ticks, tree = 0.01 MB, solutions = 5)

Zero-half cuts applied:  7
Lift and project cuts applied:  1
Gomory fractional cuts applied:  1

Root node processing (before b&c):
  Real time             =    0.23 sec. (201.18 ticks)
Parallel b&c, 8 threads:
  Real time             =    0.00 sec. (0.00 ticks)
  Sync time (average)   =    0.00 sec.
  Wait time (average)   =    0.00 sec.
                          ------------
Total (root+branch&cut) =    0.23 sec. (201.18 ticks)

Zero-half cuts applied:  12
Lift and project cuts applied:  1
Gomory fractional cuts applied:  2

Root node processing (before b&c):
  Real time             =    0.20 sec. (153.55 ticks)
Parallel b&c, 8 threads:
  Real time             =    0.00 sec. (0.00 ticks)
  Sync time (average)   =    0.00 sec.
  Wait time (average)   =    0.00 sec.
                          ------------
Total (root+branch&cut) =    0.20 sec. (153.55 ticks)

Root node processing (before b&c):
  Real time             =    0.11 sec. (70.58 ticks)
Parallel b&c, 8 threads:
  Real time             =    0.00 sec. (0.00 ticks)
  Sync time (average)   =    0.00 sec.
  Wait time (average)   =    0.00 sec.
                          ------------
Total (root+branch&cut) =    0.11 sec. (70.58 ticks)

Root node processing (before b&c):
  Real time             =    0.08 sec. (36.82 ticks)
Parallel b&c, 8 threads:
  Real time             =    0.00 sec. (0.00 ticks)
  Sync time (average)   =    0.00 sec.
  Wait time (average)   =    0.00 sec.
                          ------------
Total (root+branch&cut) =    0.08 sec. (36.82 ticks)
Version identifier: 22.1.1.0 | 2022-11-28 | 9160aff4d
CPXPARAM_Threads                                 8
CPXPARAM_Emphasis_MIP                            5
CPXPARAM_TimeLimit                               3600
CPXPARAM_MIP_Tolerances_MIPGap                   0.029999999999999999
Tried aggregator 2 times.
MIP Presolve eliminated 290 rows and 158 columns.
Aggregator did 74 substitutions.
Reduced MIP has 708 rows, 551 columns, and 2574 nonzeros.
Reduced MIP has 461 binaries, 90 generals, 0 SOSs, and 0 indicators.
Presolve time = 0.00 sec. (2.64 ticks)
Probing fixed 26 vars, tightened 25 bounds.
Probing time = 0.00 sec. (1.70 ticks)
Tried aggregator 1 time.
Detecting symmetries...
MIP Presolve eliminated 41 rows and 27 columns.
Reduced MIP has 667 rows, 524 columns, and 2412 nonzeros.
Reduced MIP has 434 binaries, 90 generals, 0 SOSs, and 0 indicators.
Presolve time = 0.00 sec. (2.38 ticks)
Probing time = 0.00 sec. (1.48 ticks)
Clique table members: 795.
MIP emphasis: heuristic.
MIP search method: dynamic search.
Parallel mode: deterministic, using up to 8 threads.
Root relaxation solution time = 0.02 sec. (5.37 ticks)

        Nodes                                         Cuts/
   Node  Left     Objective  IInf  Best Integer    Best Bound    ItCnt     Gap

      0     0      293.0000    28                    293.0000      332         
*     0+   -1                          532.0000      293.0000            44.92%
      0     0  -1.00000e+75     0      532.0000      293.0000      332   44.92%
*     0+    0                          293.0000      293.0000             0.00%
      0     0        cutoff            293.0000      293.0000      332    0.00%
Elapsed time = 0.07 sec. (36.79 ticks, tree = 0.01 MB, solutions = 2)
Version identifier: 22.1.1.0 | 2022-11-28 | 9160aff4d
CPXPARAM_Threads                                 8
CPXPARAM_Emphasis_MIP                            5
CPXPARAM_TimeLimit                               3600
CPXPARAM_MIP_Tolerances_MIPGap                   0.029999999999999999
Tried aggregator 4 times.
MIP Presolve eliminated 393 rows and 233 columns.
Aggregator did 81 substitutions.
Reduced MIP has 1100 rows, 865 columns, and 4058 nonzeros.
Reduced MIP has 727 binaries, 138 generals, 0 SOSs, and 0 indicators.
Presolve time = 0.01 sec. (6.06 ticks)
Probing fixed 75 vars, tightened 72 bounds.
Probing time = 0.01 sec. (3.80 ticks)
Tried aggregator 2 times.
Detecting symmetries...
MIP Presolve eliminated 105 rows and 81 columns.
Aggregator did 1 substitutions.
Reduced MIP has 994 rows, 783 columns, and 3618 nonzeros.
Reduced MIP has 645 binaries, 138 generals, 0 SOSs, and 0 indicators.
Presolve time = 0.01 sec. (4.75 ticks)
Probing fixed 7 vars, tightened 8 bounds.
Probing time = 0.00 sec. (3.03 ticks)
Clique table members: 2014.
MIP emphasis: heuristic.
MIP search method: dynamic search.
Parallel mode: deterministic, using up to 8 threads.
Root relaxation solution time = 0.03 sec. (11.74 ticks)

        Nodes                                         Cuts/
   Node  Left     Objective  IInf  Best Integer    Best Bound    ItCnt     Gap

*     0+    0                          579.0000        0.0000           100.00%
*     0     0      integral     0      293.0000      293.0000      585    0.00%
Elapsed time = 0.09 sec. (52.65 ticks, tree = 0.00 MB, solutions = 2)
Version identifier: 22.1.1.0 | 2022-11-28 | 9160aff4d
CPXPARAM_Threads                                 8
CPXPARAM_Emphasis_MIP                            5
CPXPARAM_TimeLimit                               3600
CPXPARAM_MIP_Tolerances_MIPGap                   0.029999999999999999
Tried aggregator 2 times.
MIP Presolve eliminated 467 rows and 290 columns.
Aggregator did 85 substitutions.
Reduced MIP has 1399 rows, 1101 columns, and 5186 nonzeros.
Reduced MIP has 926 binaries, 175 generals, 0 SOSs, and 0 indicators.
Presolve time = 0.01 sec. (5.06 ticks)
Probing fixed 123 vars, tightened 119 bounds.
Probing time = 0.01 sec. (6.97 ticks)
Tried aggregator 1 time.
MIP Presolve eliminated 164 rows and 128 columns.
Reduced MIP has 1235 rows, 973 columns, and 4490 nonzeros.
Reduced MIP has 798 binaries, 175 generals, 0 SOSs, and 0 indicators.
Presolve time = 0.00 sec. (3.55 ticks)
Probing time = 0.00 sec. (2.58 ticks)
Tried aggregator 1 time.
Detecting symmetries...
Reduced MIP has 1235 rows, 973 columns, and 4490 nonzeros.
Reduced MIP has 798 binaries, 175 generals, 0 SOSs, and 0 indicators.
Presolve time = 0.00 sec. (2.87 ticks)
Probing time = 0.00 sec. (2.58 ticks)
Clique table members: 3157.
MIP emphasis: heuristic.
MIP search method: dynamic search.
Parallel mode: deterministic, using up to 8 threads.
Root relaxation solution time = 0.03 sec. (12.12 ticks)

        Nodes                                         Cuts/
   Node  Left     Objective  IInf  Best Integer    Best Bound    ItCnt     Gap

*     0     0      integral     0      293.0000      293.0000      599    0.00%
Elapsed time = 0.11 sec. (70.54 ticks, tree = 0.00 MB, solutions = 1)

Root node processing (before b&c):
  Real time             =    0.09 sec. (52.69 ticks)
Parallel b&c, 8 threads:
  Real time             =    0.00 sec. (0.00 ticks)
  Sync time (average)   =    0.00 sec.
  Wait time (average)   =    0.00 sec.
                          ------------
Total (root+branch&cut) =    0.09 sec. (52.69 ticks)
Version identifier: 22.1.1.0 | 2022-11-28 | 9160aff4d
CPXPARAM_Threads                                 8
CPXPARAM_Emphasis_MIP                            5
CPXPARAM_TimeLimit                               3600
CPXPARAM_MIP_Tolerances_MIPGap                   0.029999999999999999
Tried aggregator 2 times.
MIP Presolve eliminated 795 rows and 501 columns.
MIP Presolve modified 3 coefficients.
Aggregator did 123 substitutions.
Reduced MIP has 1669 rows, 1305 columns, and 6221 nonzeros.
Reduced MIP has 1119 binaries, 186 generals, 0 SOSs, and 0 indicators.
Presolve time = 0.01 sec. (7.78 ticks)
Probing fixed 190 vars, tightened 183 bounds.
Probing time = 0.01 sec. (8.17 ticks)
Tried aggregator 1 time.
MIP Presolve eliminated 257 rows and 195 columns.
Reduced MIP has 1412 rows, 1110 columns, and 5157 nonzeros.
Reduced MIP has 924 binaries, 186 generals, 0 SOSs, and 0 indicators.
Presolve time = 0.01 sec. (4.10 ticks)
Probing time = 0.00 sec. (2.60 ticks)
Tried aggregator 1 time.
Detecting symmetries...
Reduced MIP has 1412 rows, 1110 columns, and 5157 nonzeros.
Reduced MIP has 924 binaries, 186 generals, 0 SOSs, and 0 indicators.
Presolve time = 0.00 sec. (3.36 ticks)
Probing time = 0.00 sec. (2.61 ticks)
Clique table members: 3553.
MIP emphasis: heuristic.
MIP search method: dynamic search.
Parallel mode: deterministic, using up to 8 threads.
Root relaxation solution time = 0.04 sec. (18.97 ticks)

        Nodes                                         Cuts/
   Node  Left     Objective  IInf  Best Integer    Best Bound    ItCnt     Gap

      0     0      352.4000    71                    352.4000      763         
*     0+    0                          405.0000      352.4000            12.99%
*     0+    0                          366.0000      352.4000             3.72%
      0     0        cutoff            366.0000      366.0000      824    0.00%
Elapsed time = 0.20 sec. (153.46 ticks, tree = 0.01 MB, solutions = 2)
Version identifier: 22.1.1.0 | 2022-11-28 | 9160aff4d
CPXPARAM_Threads                                 8
CPXPARAM_Emphasis_MIP                            5
CPXPARAM_TimeLimit                               3600
CPXPARAM_MIP_Tolerances_MIPGap                   0.029999999999999999
Tried aggregator 2 times.
MIP Presolve eliminated 890 rows and 574 columns.
MIP Presolve modified 3 coefficients.
Aggregator did 129 substitutions.
Reduced MIP has 1931 rows, 1514 columns, and 7212 nonzeros.
Reduced MIP has 1298 binaries, 216 generals, 0 SOSs, and 0 indicators.
Presolve time = 0.02 sec. (8.98 ticks)
Found incumbent of value 908.000000 after 0.06 sec. (45.39 ticks)
Probing fixed 248 vars, tightened 240 bounds.
Probing time = 0.02 sec. (9.95 ticks)
Tried aggregator 1 time.
MIP Presolve eliminated 324 rows and 254 columns.
Reduced MIP has 1607 rows, 1260 columns, and 5851 nonzeros.
Reduced MIP has 1045 binaries, 215 generals, 0 SOSs, and 0 indicators.
Presolve time = 0.00 sec. (3.05 ticks)
Probing time = 0.00 sec. (2.72 ticks)
Tried aggregator 1 time.
Detecting symmetries...
Reduced MIP has 1607 rows, 1260 columns, and 5851 nonzeros.
Reduced MIP has 1045 binaries, 215 generals, 0 SOSs, and 0 indicators.
Presolve time = 0.00 sec. (3.78 ticks)
Probing time = 0.00 sec. (2.72 ticks)
Clique table members: 4080.
MIP emphasis: heuristic.
MIP search method: dynamic search.
Parallel mode: deterministic, using up to 8 threads.
Root relaxation solution time = 0.03 sec. (21.48 ticks)

        Nodes                                         Cuts/
   Node  Left     Objective  IInf  Best Integer    Best Bound    ItCnt     Gap

*     0+    0                          908.0000        0.0000           100.00%
      0     0      384.4000   115      908.0000      384.4000      809   57.67%
*     0+   -1                          621.0000      384.4000            38.10%
      0     0  -1.00000e+75     0      621.0000      384.4000      809   38.10%
*     0+    0                          437.0000      384.4000            12.04%
*     0+    0                          423.0000      384.4000             9.13%
*     0+    0                          398.0000      384.4000             3.42%
      0     0        cutoff            398.0000                    929    0.00%
Elapsed time = 0.25 sec. (201.06 ticks, tree = 0.01 MB, solutions = 5)

Zero-half cuts applied:  7
Lift and project cuts applied:  1
Gomory fractional cuts applied:  1

Root node processing (before b&c):
  Real time             =    0.25 sec. (201.18 ticks)
Parallel b&c, 8 threads:
  Real time             =    0.00 sec. (0.00 ticks)
  Sync time (average)   =    0.00 sec.
  Wait time (average)   =    0.00 sec.
                          ------------
Total (root+branch&cut) =    0.25 sec. (201.18 ticks)

Zero-half cuts applied:  12
Lift and project cuts applied:  1
Gomory fractional cuts applied:  2

Root node processing (before b&c):
  Real time             =    0.20 sec. (153.55 ticks)
Parallel b&c, 8 threads:
  Real time             =    0.00 sec. (0.00 ticks)
  Sync time (average)   =    0.00 sec.
  Wait time (average)   =    0.00 sec.
                          ------------
Total (root+branch&cut) =    0.20 sec. (153.55 ticks)

Root node processing (before b&c):
  Real time             =    0.11 sec. (70.58 ticks)
Parallel b&c, 8 threads:
  Real time             =    0.00 sec. (0.00 ticks)
  Sync time (average)   =    0.00 sec.
  Wait time (average)   =    0.00 sec.
                          ------------
Total (root+branch&cut) =    0.11 sec. (70.58 ticks)

Root node processing (before b&c):
  Real time             =    0.07 sec. (36.82 ticks)
Parallel b&c, 8 threads:
  Real time             =    0.00 sec. (0.00 ticks)
  Sync time (average)   =    0.00 sec.
  Wait time (average)   =    0.00 sec.
                          ------------
Total (root+branch&cut) =    0.07 sec. (36.82 ticks)
